 C  N  B  N Pt 
 1.0000000000000000
    16.8945260621792173    0.0000003342067314    0.0039684180178705
     0.0000004354591695    9.9340390987585341    0.0000780311409145
     0.0074153011833718   -0.0003244210360258   14.9939906654860131
 C   N   B   N   Pt 
  56   2   1   3   1
Cartesian
  3.5214727323035637  0.6074906636331349  7.4968537046915893
  2.8319503350942905  1.8568810703901808  7.4965127593825516
  3.5485921784452765  3.0954445216712960  7.4968471261882987
  1.4154543046369916  1.8567585741633708  7.4959711413511148
  0.7181652809970319  3.1039803197312974  7.4957557508489785
  2.8695387954472054  4.3497550891136436  7.4966078102869158
  3.5936243805117662  5.5745270426009270  7.4969316636600913
  2.8695886386843998  6.7993289382160969  7.4966392131872865
  0.7182742081617178  8.0450567887530600  7.4959100998583326
  0.7152154348579463  0.6074840373605852  7.4957643320443434
  3.5486711449725838  8.0536003777430611  7.4969051379363973
  1.4155070273096209  9.2922715039292978  7.4960873643848158
  2.8320178868698465  9.2921294055001979  7.4966092260294674
  1.4358498524170504  4.3470587865959098  7.4960714780455238
  1.4359047581841806  6.8020054667026075  7.4961748567343482
  0.7183096411411122  5.5745490879306576  7.4959067849670875
  4.9293251612065880  0.6074938385732032  7.4975922118655731
 11.9577947930987083  0.6074871140054797  7.4992326586568252
  5.6391484361767539  1.8373974099289641  7.4979779412741046
  4.9552264701646029  3.0997289855443060  7.4975446806834078
 11.2721799172876818  1.8364748230686507  7.4992954771687268
 11.9321292025215850  3.0727729360199825  7.4991735891144913
  7.7607859864549882  0.6075117900674937  7.4990161343113702
  7.0378131975015403  1.8112582594789031  7.4986963096399544
  7.7427971294910396  3.0039734581231636  7.4989262507825503
  9.1516593498990311  2.9974295142253817  7.4992466947964100
  5.7160621794491311  4.3050026969478905  7.4979234152947143
  5.7160667834512093  6.8440617479879178  7.4979535313075161
 11.1888187304284230  4.3023695460869105  7.4992041357906416
 11.8498596570635968  5.5745144942890965  7.4991445512934751
 11.1887563823001077  6.8466475859741891  7.4992234352579130
  7.7427368879253438  8.1449602725737353  7.4989408910555735
  9.1515790775622428  8.1514957331751265  7.4992751665171058
  9.1645655145777436  0.6075079312981755  7.4993150766653462
  7.0378779300604606  9.3377673834602284  7.4987288568217378
  4.9552943197759589  8.0493056195664163  7.4975791997785288
  5.6392162374231942  9.3116606875123278  7.4980152447091895
 11.9320508766293720  8.0762733902556061  7.4992073805887243
 11.2721022918785572  9.3125621284576674  7.4993232286454399
 13.3784572267816877  0.6074413470777731  7.4991359168834864
 14.0709855013987202  1.8538450858527109  7.4991005415836751
 13.3538540985337644  3.0874851180676877  7.4990635448887000
 16.1912194252003019  0.6074704067525680  7.4993637061824474
 15.4910017411728198  1.8543704230247779  7.4992106344733180
 16.1892407462961145  3.1020997124793648  7.4993612770978411
 14.0369040594116523  4.3429433286027503  7.4990301757735054
 13.3080787845246356  5.5744951491175492  7.4990614413591992
 14.0368959748070878  6.8060617316544647  7.4991280268386626
 16.1893233701727013  8.0469468911724462  7.4994939951318011
 15.4910215005284275  9.2946073935629965  7.4993106219124579
 13.3538065946567581  8.0614868245130307  7.4991497714205506
 14.0709754679526640  9.2950693769245483  7.4991737255479487
 15.4680184215769696  4.3408014027220254  7.4992317420739116
 15.4680470892848998  6.8082446511232915  7.4993622512744507
 16.1812924222240717  5.5745328310622728  7.4994498817253508
  9.8521765384679139  9.3615091406277937  7.4994121881043014
  9.8522481640245374  1.7875048211005007  7.4993821696296159
  5.0525294349953791  5.5745517365990152  7.4975788378307806
  7.0699630697952527  4.2093363970231836  7.4986481742207260
  7.0699911295755298  6.9395751959856042  7.4986657964623618
  9.8259142266308874  4.1676597148649615  7.4992885237497831
  9.8258407435781798  6.9812459794117485  7.4993101456147953
  8.4588549501114887  5.5743497141156135  7.4990244619178235
