C  N  Pt O  H
 1.0000000000000000
    16.9226074160000017    0.0000325730000000    0.0039428880000000
     0.0000193720000000    9.9244210400000004    0.0001121790000000
     0.0074078090000000   -0.0002719780000000   14.9836166609999992
 C   N   Pt  O   H
  58   4   1   1   1
Cartesian
  3.5267900000000023  0.6069300000000258  7.4916999999999616
  2.8376500000000209  1.8549299999999986  7.4913900000000488
  3.5547900000000143  3.0959299999999819  7.4915099999999706
  1.4163800000000282  1.8534600000000148  7.4909000000000328
  0.7171900000000470  3.0984099999999781  7.4906899999999546
  2.8648700000000122  4.3397500000000013  7.4914800000000419
  3.6023099999999855  5.5691500000000271  7.4917200000000115
  2.8648899999999506  6.7985100000000154  7.4915300000000133
  0.7172100000000272  8.0397399999999859  7.4907399999999944
  0.7143499999999566  0.6068499999999964  7.4905699999999600
  3.5548299999999800  8.0423499999999866  7.4915899999999613
  1.4164300000000349  9.2847099999999969  7.4909699999999706
  2.8377000000000372  9.2832899999999743  7.4914500000000377
  1.4337300000000155  4.3369499999999901  7.4911700000000225
  1.4337399999999683  6.8012300000000350  7.4911899999999623
  0.7179299999999432  5.5690899999999868  7.4910000000000148
  4.9387799999999640  0.6069800000000116  7.4924500000000451
 11.9911499999999638  0.6068900000000351  7.4942400000000031
  5.6447700000000252  1.8371300000000046  7.4927699999999611
  4.9789999999999557  3.0880799999999899  7.4920599999999773
 11.2851600000000030  1.8370399999999873  7.4941000000000351
 11.9509599999999505  3.0879899999999685  7.4938599999999971
  7.7649400000000206  0.6070599999999949  7.4942500000000241
  7.0561099999999879  1.8210899999999823  7.4936900000000426
  9.8738200000000571  1.8210600000000079  7.4941200000000174
  7.7545199999999825  3.0264800000000061  7.4936299999999880
  9.1754399999999574  3.0264399999999694  7.4938299999999689
  5.7411200000000564  4.3065399999999876  7.4925299999999790
  5.0492300000000458  5.5692099999999911  7.4921899999999848
  5.7411099999999813  6.8319499999999929  7.4926000000000004
 11.1888499999999738  4.3064499999999732  7.4938899999999542
 11.8807199999999806  5.5691200000000283  7.4939200000000366
 11.1888099999999771  6.8318600000000318  7.4939400000000473
  7.7544999999999433  8.1121399999999877  7.4936699999999838
  9.1754199999999901  8.1121300000000147  7.4938699999999603
  9.1649599999999616  0.6070299999999896  7.4943899999999806
  7.0560799999999873  9.3174599999999952  7.4937200000000344
  4.9789999999999424  8.0503299999999740  7.4921399999999743
  5.6447500000000455  9.3012799999999967  7.4928200000000427
 11.9509500000000095  8.0502199999999799  7.4939000000000462
  9.8738399999999515  9.3174300000000354  7.4941300000000259
 11.2851799999999436  9.3011900000000267  7.4941299999999540
 13.4031499999999770  0.6068400000000040  7.4941499999999648
 14.0923000000000176  1.8548500000000319  7.4939799999999686
 13.3751800000000198  3.0958400000000030  7.4938699999999780
 16.2155999999999629  0.6068400000000143  7.4939700000000524
 15.5135699999999996  1.8534299999999790  7.4938700000000438
 16.2127899999999592  3.0984099999999919  7.4940500000000165
 14.0650999999999637  4.3396700000000026  7.4938600000000362
 13.3276500000000020  5.5690700000000133  7.4939000000000000
 14.0650799999999858  6.7984400000000287  7.4938899999999693
 16.2127799999999489  8.0397399999999681  7.4940900000000337
 15.5135400000000221  9.2846799999999750  7.4939099999999907
 13.3751400000000107  8.0422599999999811  7.4938999999999512
 14.0922699999999761  9.2832200000000320  7.4940000000000255
 15.4962600000000350  4.3369399999999736  7.4940000000000158
 15.4962500000000389  6.8012099999999815  7.4940399999999823
 16.2120700000000504  5.5690899999999957  7.4942999999999778
  7.1169600000000459  4.2387699999999908  7.4935700000000249
  7.1169700000000562  6.8998100000000013  7.4936300000000093
  9.8129900000000561  4.2387400000000355  7.4940600000000464
  9.8129500000000416  6.8997499999999805  7.4941300000000046
  8.4649800000000113  5.5692599999999741  7.4949300000000445
  4.8123806425091926  5.4934094840181737  9.0581270636622975
  5.2258088450685616  5.6446779810230945  9.9326400870315545
