 C  N Fe  H                             
   1.00000000000000     
    16.9222766693551954   -0.0004663361203650    0.0040395329636598
    -0.0002737726630001    9.9733243659600426    0.0001220625246278
     0.0075088811054625   -0.0002586088678517   14.9104373094723517
   C    N    Pt   H 
    34     4     1     8
Direct
  0.3954219956856164  0.0611585907435668  0.4999244653877142
  0.3550302337656035  0.1866566208626921  0.4999140732274867
  0.3974407776353033  0.3115220926869497  0.4999218083242241
  0.2699850926937586  0.1866124085354599  0.4999043035232447
  0.2310429340536473  0.3125118417944535  0.4998991002002029
  0.3575196581229392  0.4369696769506533  0.4999126171110007
  0.4009615857125226  0.5611546290745508  0.4999268579571492
  0.3575171760210623  0.6853332947407438  0.4999211008393374
  0.2310451468193477  0.8097787247982851  0.4999171234896949
  0.2299281106951270  0.0611463985467324  0.4999064038065058
  0.3974361162933562  0.8107902632434971  0.4999276503403891
  0.2699846586095234  0.9356866208238728  0.4999138433676293
  0.3550298460045838  0.9356533519548194  0.4999201360306103
  0.2720443679818700  0.4368738372582897  0.4999046595256402
  0.2720439427540171  0.6854207119101545  0.4999158672875765
  0.2316975054152195  0.5611436441225592  0.4999131344458831
  0.4791956196380269  0.0611646475768239  0.4999478458745017
  0.5211246546674388  0.1843448567278827  0.4999633935106615
  0.4818800632188314  0.3105280966031216  0.4999480310186826
  0.6474404101035276  0.0611845582956931  0.4999969753933371
  0.6046688897852874  0.1819560825323947  0.4999888515354343
  0.7719849299212527  0.1845541396944981  0.4999922098609630
  0.6452546039828349  0.3030393046708397  0.4999939760077794
  0.7301536283083720  0.3041735357224127  0.4999955467173152
  0.5267609409257048  0.4327789074396691  0.4999617185644922
  0.4864523306057791  0.5611636300778144  0.4999487584064042
  0.5267562222106434  0.6895605271984167  0.4999622601040059
  0.6452461093804800  0.8193379425795939  0.4999941160137737
  0.7301451959123639  0.8182346434782559  0.4999957018059220
  0.7317511167243893  0.0611971722531308  0.4999958561560973
  0.6046601136412662  0.9404084586874859  0.4999889398219679
  0.4818739747561267  0.8117938403929870  0.4999492757628374
  0.5211177769098541  0.9379881441251925  0.4999633310310116
  0.7719854570437974  0.9378516423209717  0.4999902857427898
  0.6079874006260013  0.4244368239268042  0.4999850899530642
  0.6079843037021320  0.6979271555889639  0.4999848703992953
  0.7617180985761749  0.4288151282377868  0.4999932487992140
  0.7617126549615421  0.6936006426680663  0.4999945820915315
  0.6867551858535563  0.5611952603201047  0.5000002222112272
  0.1669900774733151  0.8078074987707708  0.4999169314318834
  0.1676509203675707  0.5611449660729875  0.4999229170483375
  0.1669879204784337  0.3144815132967835  0.4999059815379852
  0.1658637280480590  0.0611482087979951  0.4999054129852070
  0.8359987417774235  0.9360603535968082  0.4999808697819859
  0.8214777180811481  0.6885820070025233  0.4999825933753286
  0.8214828714325932  0.4338571595795528  0.4999799893780335
  0.8359987908805664  0.1863515221267349  0.4999835799360568
 
  0.00000000E+00  0.00000000E+00  0.00000000E+00
  0.00000000E+00  0.00000000E+00  0.00000000E+00
  0.00000000E+00  0.00000000E+00  0.00000000E+00
  0.00000000E+00  0.00000000E+00  0.00000000E+00
  0.00000000E+00  0.00000000E+00  0.00000000E+00
  0.00000000E+00  0.00000000E+00  0.00000000E+00
  0.00000000E+00  0.00000000E+00  0.00000000E+00
  0.00000000E+00  0.00000000E+00  0.00000000E+00
  0.00000000E+00  0.00000000E+00  0.00000000E+00
  0.00000000E+00  0.00000000E+00  0.00000000E+00
  0.00000000E+00  0.00000000E+00  0.00000000E+00
  0.00000000E+00  0.00000000E+00  0.00000000E+00
  0.00000000E+00  0.00000000E+00  0.00000000E+00
  0.00000000E+00  0.00000000E+00  0.00000000E+00
  0.00000000E+00  0.00000000E+00  0.00000000E+00
  0.00000000E+00  0.00000000E+00  0.00000000E+00
  0.00000000E+00  0.00000000E+00  0.00000000E+00
  0.00000000E+00  0.00000000E+00  0.00000000E+00
  0.00000000E+00  0.00000000E+00  0.00000000E+00
  0.00000000E+00  0.00000000E+00  0.00000000E+00
  0.00000000E+00  0.00000000E+00  0.00000000E+00
  0.00000000E+00  0.00000000E+00  0.00000000E+00
  0.00000000E+00  0.00000000E+00  0.00000000E+00
  0.00000000E+00  0.00000000E+00  0.00000000E+00
  0.00000000E+00  0.00000000E+00  0.00000000E+00
  0.00000000E+00  0.00000000E+00  0.00000000E+00
  0.00000000E+00  0.00000000E+00  0.00000000E+00
  0.00000000E+00  0.00000000E+00  0.00000000E+00
  0.00000000E+00  0.00000000E+00  0.00000000E+00
  0.00000000E+00  0.00000000E+00  0.00000000E+00
  0.00000000E+00  0.00000000E+00  0.00000000E+00
  0.00000000E+00  0.00000000E+00  0.00000000E+00
  0.00000000E+00  0.00000000E+00  0.00000000E+00
  0.00000000E+00  0.00000000E+00  0.00000000E+00
  0.00000000E+00  0.00000000E+00  0.00000000E+00
  0.00000000E+00  0.00000000E+00  0.00000000E+00
  0.00000000E+00  0.00000000E+00  0.00000000E+00
  0.00000000E+00  0.00000000E+00  0.00000000E+00
  0.00000000E+00  0.00000000E+00  0.00000000E+00
  0.00000000E+00  0.00000000E+00  0.00000000E+00
  0.00000000E+00  0.00000000E+00  0.00000000E+00
  0.00000000E+00  0.00000000E+00  0.00000000E+00
  0.00000000E+00  0.00000000E+00  0.00000000E+00
  0.00000000E+00  0.00000000E+00  0.00000000E+00
  0.00000000E+00  0.00000000E+00  0.00000000E+00
  0.00000000E+00  0.00000000E+00  0.00000000E+00
  0.00000000E+00  0.00000000E+00  0.00000000E+00
