 C  N Fe  H
   1.00000000000000
    17.1875685985812439    0.1829063759946507    0.0038437793899145
     0.1054185512926603    9.7860627980775394    0.0002089102491401
     0.0074295683664811   -0.0000469853598978   14.9629235870070243
   C    N    Pt   H
    31     4     1     9
Direct
  0.3994661037419699  0.0775859827292344  0.4999351860974428
  0.3569703253177439  0.2035954567968437  0.4999244730673133
  0.3964186215139005  0.3286349639927777  0.4999297642997970
  0.2729212289866787  0.2068626526119029  0.4999172426968838
  0.2321892891631123  0.3330522800417722  0.4999155154497064
  0.3547910631104135  0.4544300447376090  0.4999242980584119
  0.3956611496881477  0.5782876322833854  0.4999347666535938
  0.3559110683009643  0.7055313279413922  0.4999321631195483
  0.2330830388800371  0.8351472852931832  0.4999176548190306
  0.2336570256927005  0.0832080177401908  0.4999149023201866
  0.3994366030568774  0.8268851932340929  0.4999394547148018
  0.2741055836532474  0.9573246139868163  0.4999185901315528
  0.3583977114376479  0.9540093561215020  0.4999294815624902
  0.2710796841861313  0.4576074799466320  0.4999204653837780
  0.2719433790626999  0.7082897146151437  0.4999220567352645
  0.2316484347231691  0.5846568873306861  0.4999227886801121
  0.4832167645531492  0.0740049755421749  0.4999550421693666
  0.5219488209839565  0.2006115656943993  0.4999629114604393
  0.4792848679495702  0.3264675109391132  0.4999481883923987
  0.6493499486684390  0.0818909860189568  0.4999928589778994
  0.6049081202403925  0.2059261185262908  0.4999813571996948
  0.7674632046435806  0.2155988394295953  0.5000029154944918
  0.6417709630065466  0.3373742317248141  0.4999868592672185
  0.7248001674181215  0.3416405627055583  0.4999980184282670
  0.5190457526350079  0.4507547630008081  0.4999583163904615
  0.4776834496698564  0.5768865713721223  0.4999506234868132
  0.7320503209500340  0.0912713610768541  0.5000066073391224
  0.6104871077491458  0.9500896190724791  0.4999874903613461
  0.4839308337006211  0.8201135632600665  0.4999569957744123
  0.5264998546307181  0.9462965459247256  0.4999676432026519
  0.7670964425260629  0.4649481553286294  0.5000142151500138
  0.5208787224407220  0.6945021196431421  0.4999625566402227
  0.6544565182060158  0.8341325936386373  0.4999999532267671
  0.5990345720508835  0.4571799579619391  0.4999793698673419
  0.7373368803504108  0.5903127137923395  0.5000314902320054
  0.6306376732610143  0.6471825325604387  0.4999993550444725
  0.1700506375747621  0.8395105308745046  0.4999151482085435
  0.1686022162815796  0.5880528699946901  0.4999260210135664
  0.1691360110871538  0.3336788182363282  0.4999146156090008
  0.1706188445151621  0.0843103735364812  0.4999100568577080
  0.8301370334695262  0.4533671827627130  0.5000159917546648
  0.8304403240685966  0.2186763738240889  0.5000060361886731
  0.7796412990796020  0.6611009655554405  0.5000536915918643
  0.7118190084872666  0.8542534837962799  0.5000041880139184
  0.7694477088298103  0.0011978793027356  0.5000216107751553

  0.00000000E+00  0.00000000E+00  0.00000000E+00
  0.00000000E+00  0.00000000E+00  0.00000000E+00
  0.00000000E+00  0.00000000E+00  0.00000000E+00
  0.00000000E+00  0.00000000E+00  0.00000000E+00
  0.00000000E+00  0.00000000E+00  0.00000000E+00
  0.00000000E+00  0.00000000E+00  0.00000000E+00
  0.00000000E+00  0.00000000E+00  0.00000000E+00
  0.00000000E+00  0.00000000E+00  0.00000000E+00
  0.00000000E+00  0.00000000E+00  0.00000000E+00
  0.00000000E+00  0.00000000E+00  0.00000000E+00
  0.00000000E+00  0.00000000E+00  0.00000000E+00
  0.00000000E+00  0.00000000E+00  0.00000000E+00
  0.00000000E+00  0.00000000E+00  0.00000000E+00
  0.00000000E+00  0.00000000E+00  0.00000000E+00
  0.00000000E+00  0.00000000E+00  0.00000000E+00
  0.00000000E+00  0.00000000E+00  0.00000000E+00
  0.00000000E+00  0.00000000E+00  0.00000000E+00
  0.00000000E+00  0.00000000E+00  0.00000000E+00
  0.00000000E+00  0.00000000E+00  0.00000000E+00
  0.00000000E+00  0.00000000E+00  0.00000000E+00
  0.00000000E+00  0.00000000E+00  0.00000000E+00
  0.00000000E+00  0.00000000E+00  0.00000000E+00
  0.00000000E+00  0.00000000E+00  0.00000000E+00
  0.00000000E+00  0.00000000E+00  0.00000000E+00
  0.00000000E+00  0.00000000E+00  0.00000000E+00
  0.00000000E+00  0.00000000E+00  0.00000000E+00
  0.00000000E+00  0.00000000E+00  0.00000000E+00
  0.00000000E+00  0.00000000E+00  0.00000000E+00
  0.00000000E+00  0.00000000E+00  0.00000000E+00
  0.00000000E+00  0.00000000E+00  0.00000000E+00
  0.00000000E+00  0.00000000E+00  0.00000000E+00
  0.00000000E+00  0.00000000E+00  0.00000000E+00
  0.00000000E+00  0.00000000E+00  0.00000000E+00
  0.00000000E+00  0.00000000E+00  0.00000000E+00
  0.00000000E+00  0.00000000E+00  0.00000000E+00
  0.00000000E+00  0.00000000E+00  0.00000000E+00
  0.00000000E+00  0.00000000E+00  0.00000000E+00
  0.00000000E+00  0.00000000E+00  0.00000000E+00
  0.00000000E+00  0.00000000E+00  0.00000000E+00
  0.00000000E+00  0.00000000E+00  0.00000000E+00
  0.00000000E+00  0.00000000E+00  0.00000000E+00
  0.00000000E+00  0.00000000E+00  0.00000000E+00
  0.00000000E+00  0.00000000E+00  0.00000000E+00
  0.00000000E+00  0.00000000E+00  0.00000000E+00
  0.00000000E+00  0.00000000E+00  0.00000000E+00
