 C  N  B  N Pt 
 1.0000000000000000
    16.9601541835280081   -0.0004416403726406    0.0039313028516925
    -0.0002561903024704    9.9781675246330597    0.0001208993899057
     0.0074405156232895   -0.0002600390049898   14.8699164133924082
 C   N   B   N   Pt 
  56   2   2   2   1
Cartesian
  3.5222971978492308  0.6097907994270141  7.4348120804428151
  2.8306788153011420  1.8613319458035413  7.4345207306725154
  3.5458863197177002  3.1046260344943146  7.4347405251790812
  1.4130438458716126  1.8619152523346436  7.4340079271002732
  0.7182777529591650  3.1141608029618086  7.4338050655705228
  2.8656283863184386  4.3604174459800040  7.4345908219619785
  3.6112129546832064  5.5992575205226442  7.4348907314694381
  2.8661213388702511  6.8368196241859902  7.4346574913668197
  0.7174253703183092  8.0832651576777632  7.4338884804511842
  0.7124333493464449  0.6091678912668026  7.4337318414943043
  3.5511535361610451  8.0891231196369340  7.4348164183258056
  1.4147174650200340  9.3345670809021257  7.4340884325637901
  2.8337269556971352  9.3340068256224225  7.4346041669953653
  1.4364780916042807  4.3598273283049007  7.4341734654190788
  1.4360004544642528  6.8385399464972538  7.4342374691274360
  0.7174302354328382  5.5993293097298897  7.4340365983527601
  4.9316396958560089  0.6100431623044670  7.4355419627254449
 12.0284068047451189  0.6089846273185576  7.4372363749802961
  5.6438857374773663  1.8398598124080876  7.4359010825140688
  4.9648587639699748  3.0869278151267707  7.4353760959389028
 11.3216407606449465  1.8420712874380707  7.4372527465264442
 11.9976510226440425  3.0928069103347005  7.4371037349233236
  7.7782310985593037  0.6143204744473774  7.4371027521208299
  7.0610326901623210  1.8168681148984331  7.4367095778772621
  7.7567865499656445  3.0204140853661272  7.4368651705390301
  9.2035606829183276  3.0284692493975398  7.4371753939664851
  5.7270340341952579  4.3028481659085402  7.4358243295985949
  5.7394444752991998  6.8849962335256913  7.4358873024060417
 11.2442884631724542  4.3135941008912040  7.4371588584147688
 11.9386601312453138  5.5913681508457058  7.4370976307924375
 11.2508915529804856  6.8708930190430397  7.4371754645378818
  7.7511351888977416  8.1990097502037482  7.4369629923530916
  9.1866259183594874  8.1960525573648493  7.4372327634332347
  9.1880021046672500  0.6201807318643422  7.4373376822096846
  7.0498903934685950  9.3889435788629960  7.4367998373756086
  4.9734042090011963  8.1033753904710561  7.4354375498400351
  5.6392617576223252  9.3587160618756808  7.4359879595962930
 11.9962968676476560  8.1007904017795411  7.4371100610720022
 11.3168169750687273  9.3541958493935056  7.4372827005703268
 13.4403660063167649  0.6103953967603259  7.4371362430063339
 14.1335110444454273  1.8613450279195662  7.4370671242661608
 13.4199554416529860  3.1059481042800554  7.4370078433247713
 16.2551297657349529  0.6091800222622484  7.4372343857008154
 15.5533420883906022  1.8617172088204623  7.4371319215057721
 16.2529600319425747  3.1127393283519038  7.4372758349966235
 14.1104645730561025  4.3546005288744594  7.4370199677898698
 13.3705766501806806  5.5907778809007906  7.4370222403813706
 14.1054618875805655  6.8382963423694054  7.4370481165144078
 16.2511184105742892  8.0837595011694106  7.4373402487381135
 15.5528830525208210  9.3352228695723394  7.4371923547985572
 13.4181320782077336  8.0926847320154298  7.4370511354185949
 14.1342432420299904  9.3364884632581866  7.4371468886248495
 15.5365962681430840  4.3567663426101593  7.4371964252514031
 15.5334229440614937  6.8391751722362386  7.4372420846180516
 16.2523035830032718  5.5987065103684017  7.4374719860002418
  9.8500649765799047  6.9665914432647131  7.4373633597150066
  9.9039706745218901  1.8266695343190578  7.4372855122089669
  5.0548961334925471  5.5984983741337464  7.4354926639932382
  9.9016959399499527  9.3902149976936506  7.4373338912991196
  7.0766749181385924  4.1948548302541591  7.4366517392744731
  7.1031543425445411  7.0013366604848963  7.4367595732398035
  9.8745195116922133  4.2165963288711827  7.4373138829129335
  8.5012379894561487  5.6048489912554738  7.4372761612814866
