 C  N  B  N  H Pt 
 1.0000000000000000
    17.1675032688097886    0.1324614820919239    0.0037173796251046
     0.0774266748066267    9.8220987758489677   -0.0000460517669827
     0.0073297451071100   -0.0004493587910930   14.9246477603379688
 C   N   B   N   H   Pt 
  34   1   1   2   7   1
Cartesian
  6.8265094900631889  0.6349373972490568  7.4627263736727114
  6.1218843687160698  1.8683211902870966  7.4624140348077530
  6.8290037428853427  3.0952007449857928  7.4626353922120270
  4.6801164499819574  1.8805663644445427  7.4619444201850431
  4.0082333598623601  3.1151455090726174  7.4618420049410057
  6.1383395544596340  4.3319200120424828  7.4623687048373677
  6.8564860451302359  5.5567567196925536  7.4626466822388915
  6.1653050914705192  6.7887462364462747  7.4623956602479087
  4.0504173188140671  8.0281840095411692  7.4618575564515561
  3.9917953007397138  0.6569453560956020  7.4617070876382598
  6.8928680535846194  8.0052222008403007  7.4626822136868851
  4.7451739293338679  9.2477018339274739  7.4619317049292908
  6.1892532454384117  9.2354259097257039  7.4624079032947623
  4.6980936015438939  4.3402587620814472  7.4620488651340429
  4.7225506244786777  6.7969677191438160  7.4620526648896810
  4.0289481903342557  5.5746657878552108  7.4619884346287613
  8.2581697465624817  0.6219899797768715  7.4634006890440450
  8.9512042184570380  1.8557281518247233  7.4637209162085449
  8.2516323073686344  3.0831658711368317  7.4632993208345288
 11.0810516791540312  0.6297641883486905  7.4646804621308540
 10.3735560992151186  1.8531298488245136  7.4644476039464509
 13.1330636861094483  1.9797443378358524  7.4651937833606175
 11.0729149508646980  3.0821546691090997  7.4647980532127765
  8.9611482024476281  4.3118471939475533  7.4636970207838864
  8.2848154553336570  5.5501869549791643  7.4633073003797783
  9.0328370218924796  6.7595664574575718  7.4636998558517718
 12.6984371733526604  8.0459047065334151  7.4649357351673116
 12.5082587180259051  0.6933667939776681  7.4649973579087110
 10.4910647431498152  9.1919572677466199  7.4643718059112620
  8.3305013168319810  7.9945125587289336  7.4633386628210348
  9.0526247271349138  9.2113831573435299  7.4637239944723177
 13.3063630231605465  9.3290935442616902  7.4649755032074916
 10.3723301441876252  4.3182367683347955  7.4645024675175842
 10.4788398680709207  6.7184965409478332  7.4644390352605106
 11.2310462831530433  7.9560622322898995  7.4646560231228891
 12.4603489200845345  3.1264683202093630  7.4651801659875412
 13.5254471927589996  6.9827865973552257  7.4651047861250124
 11.0786864733399621  5.4881442252789059  7.4648576683083379
  2.9659382458489798  8.0357590271082682  7.4616137568902223
  2.9444310656489958  5.5847126600430501  7.4618837651227592
  2.9237127183880216  3.1229186538332026  7.4616217291237135
  2.9071270224013386  0.6604243835742289  7.4614876843431004
 14.3907432460618985  9.3674275756226191  7.4650369388267546
 14.4983257168895001  7.2564282631526398  7.4650201743961633
 14.2137944330546446  2.0532911692509863  7.4653202524417877
 13.0975810620319404  5.0642991230026491  7.4652583658211196
