 C  N Pt  H
 1.0000000000000000
    16.9460826704247012   -0.0002857457606862    0.0039261007986055
    -0.0001671078922010   10.0461740866762170    0.0000732866542398
     0.0074496248011256   -0.0003325152371725   14.7815199630246159
 C   N   Pt  H
  33   5   1   8
Cartesian
  6.6964682095461043  0.6141715845384755  7.3911671616764698
  6.0166958570762903  1.8742495051103489  7.3908735474078453
  6.7320483379176830  3.1271075688983863  7.3911596908738941
  4.5782873114663882  1.8745586714693634  7.3904043447460852
  3.9271968088420413  3.1396510246898961  7.3903074933278088
  6.0639957512558480  4.3900419355965044  7.3909723252043040
  6.8001040351117465  5.6372527535252930  7.3913202008704708
  6.0638994797539247  6.8844431009595226  7.3910597689053148
  3.9271806196373866  8.1348514657441982  7.3904819689864771
  3.9060738573687614  0.6141703567761899  7.3902575669701660
  6.7318765416574777  8.1473940235438818  7.3912796782564660
  4.5781772523681381  9.3999753345929147  7.3905444764068102
  6.0165451419590381  9.4002763189844298  7.3909676669980815
  4.6165292443111126  4.3894353310863554  7.3905871618806573
  4.6164443230148642  6.8850163526904629  7.3906925577141447
  3.9390633280342904  5.6371962498316588  7.3905967881740615
  8.1129568230392675  0.6141941296527910  7.3918993319916710
  8.8206320262475622  1.8477541904356425  7.3922721686487645
  8.1589224091056920  3.1122809618505993  7.3918656887878713
 10.9549588225997105  0.6142208407743073  7.3933167293645630
 10.2353617196930511  1.8153768284499736  7.3930134165620629
 13.0753722035836084  1.8235052468872976  7.3936589082847917
 10.9322780226106353  3.0156419479775693  7.3932436641415729
 12.3798672522042263  3.0154954815994031  7.3935787707997980
  8.9179199123523798  4.3360262015250690  7.3922676970650594
  8.9177714086345290  6.9386575484957751  7.3923152855914926
 10.9321382636488202  8.2590432042230351  7.3932791226246843
 12.3797406834747878  8.2593068024186937  7.3936201680946949
 12.3862977911157088  0.6143132174730896  7.3935873304479980
 10.2351903466771770  9.4592377086183550  7.3930844985192046
  8.1587124706678082  8.1623457976612528  7.3919566373276284
  8.8204774682926725  9.4268574018238969  7.3923650315192697
 13.0752218876983459  9.4513507000602708  7.3936874987433709
  8.2513246439768988  5.6373106859661632  7.3919680223460906
 10.2894401586621740  4.2152559165861447  7.3929347239547996
 10.2893249267973825  7.0594217200520539  7.3929548420380611
 12.9624093429086518  4.2197358428005893  7.3936771812493536
 12.9623452704022579  7.0551083545209092  7.3937217932949491
 11.6360531498989914  5.6373909725334901  7.3933059968716552
  2.8418900455503984  8.1167455670215833  7.3902331536683805
  2.8537553793714885  5.6372597622403040  7.3904968707271657
  2.8419083648301502  3.1578555228036755  7.3901474867710171
  2.8208630445322678  0.6142274819034840  7.3900278990495991
 14.1590183801546701  9.4417275045532545  7.3936917807560212
 13.9704550685888247  7.0123755168413364  7.3937192161736318
 13.9705044670700804  4.2626374579368784  7.3936498137456352
 14.1591740135416178  1.8331987021015328  7.3936967133564346
