 C  N  B  N Pt  H 
 1.0000000000000000
    17.1356942805176473    0.1840641271451210    0.0039005304552307
     0.1055568894310178    9.8182133565509488    0.0002255954727175
     0.0074502791314786   -0.0000231567826856   14.9590873905621660
 C   N   B   N   Pt  H  
  28   3   1   3   1   9
Cartesian
  6.8506812996992821  0.8365629327838036  7.4802065722490143
  6.1322549663346964  2.0646330690059007  7.4799335753550729
  6.8232912652643751  3.3027462877873051  7.4801911765608171
  4.6890279313923848  2.0786713888991621  7.4794675315780363
  4.0255080951913946  3.3164943293785640  7.4793082509946398
  6.1327268236477259  4.5383203797553184  7.4800036901103661
  6.1796723996239882  6.9841359930043136  7.4801075495236109
  4.0959906785909173  8.2338430349706151  7.4794119201039688
  4.0098380464788326  0.8581466605870502  7.4792559018700135
  6.9310374742519878  8.1900849415434305  7.4803963212569977
  4.7917869332471810  9.4464776258871410  7.4796740484524404
  6.2372569649144625  9.4252778295524777  7.4801599561042824
  4.6950526324592188  4.5501881826014943  7.4795617608111398
  4.7469184847388588  6.9949504579002850  7.4796309435891422
  4.0383658220453951  5.7826784424902655  7.4794224045668463
  8.2868748223980777  0.8164048363656607  7.4807694993258247
  8.9588529015569165  2.0678991760756760  7.4810107470616938
  8.2350622742077526  3.2817670468627318  7.4806923033982695
 11.1250795285550907  0.9330679269206269  7.4819331561308600
 10.3882161939413482  2.1403218317052826  7.4816070748403032
 13.1487547940418317  2.2864105731069868  7.4827007912706103
 11.0041748670454922  3.4188557470046761  7.4818582322959442
  8.9152624807329772  4.5113097603000218  7.4809739696619308
  8.2248708935943213  5.7442254589261736  7.4807626190566054
 12.5496369784559541  1.0819875934120222  7.4824833936302841
 10.5808198723186813  9.4724547545546685  7.4819213367707960
  8.3751274261431643  8.1623905440297513  7.4809365974914623
 13.1994961741675105  4.6359721867598491  7.4829147108975373
  9.1233661350871902  9.3846407566571379  7.4812936588454360
  6.8327589102027559  5.7421817568248281  7.4802748915853847
 12.4307683230737087  3.5083184837200854  7.4824698702324053
  8.9479290920672963  6.9066617798058987  7.4811205892614057
 11.3623358423724135  8.3799854059310057  7.4823213675066436
 10.2896732279104999  4.5666453395794520  7.4815572152386540
 12.7885523535064642  5.8819723279921776  7.4828460082533272
 10.8922984775624059  6.4738275436097990  7.4819625778171091
  3.0118441746501934  8.2458888390641416  7.4790824602787573
  2.9552425196107603  5.8081378057048649  7.4790999148782529
  2.9410692830867258  3.3265150106911148  7.4789853045741186
  2.9251722965567861  0.8558318489383614  7.4789124197693804
 14.2621141848356796  4.4336249764253095  7.4833620410429660
 14.2209466418667088  2.3982145826934556  7.4830811260573631
 13.5572168490856555  6.5399404567088899  7.4833326221458600
 12.3460041361496025  8.5891590073118120  7.4827488007214766
 13.2272769503250700  0.2398399774873919  7.4827201436868647
