 C  N  C  N Pt 
 1.0000000000000000
    16.9450307305485133   -0.0038610406915423    0.0039000412016862
    -0.0022628353941525    9.9356962895911405    0.0000927302142248
     0.0073886465316049   -0.0003022063369271   14.9468083941836589
 C   N   C   N   Pt 
  31   1  27   3   1
Cartesian
  3.5257108637995804  0.6073123714346182  7.4732305583971721
  2.8344518042749693  1.8547450534805217  7.4728967190001736
  3.5512296844320974  3.0950343092245372  7.4731864915587440
  1.4155953866252480  1.8539460846996920  7.4723514459635627
  0.7179002188916622  3.0999668317152995  7.4721366641601836
  2.8638672317937264  4.3416578269149166  7.4729751235130308
  3.6049583592558907  5.5747510808517005  7.4732993472438372
  2.8633505740414416  6.8070017951607458  7.4730593879009097
  0.7158230480363507  8.0491713739221051  7.4723378875709159
  0.7131406027128419  0.6064871013695474  7.4721391111680626
  3.5522128861750790  8.0518767239294071  7.4732848709047008
  1.4147797604537946  9.2947775053329593  7.4725041949249906
  2.8343418136890364  9.2933963796018979  7.4730213054918613
  1.4351739363198510  4.3402587535465846  7.4725157322778246
  1.4338245313744076  6.8095798721366316  7.4726378003678979
  0.7171999421724704  5.5750082461397987  7.4723997485059366
  4.9357462313861236  0.6081539238526462  7.4739847817704108
 12.0086223118028528  0.6040783108615232  7.4756479201553505
  5.6469215296401494  1.8377000310471590  7.4743512411674793
  4.9731511250217499  3.0841619012238044  7.4738508512076454
 11.3032483799249484  1.8355125120738951  7.4756902030779289
 11.9759161331805775  3.0852406409698716  7.4755062086808257
  7.7719299865024469  0.6112599722532539  7.4754843139398783
  7.0616786128643367  1.8227353501916264  7.4751147886000888
  9.8869270745105489  1.8298963433859567  7.4757639655984125
  7.7572969032905421  3.0332138257045416  7.4752879879352498
  9.1891588948084948  3.0397424689895427  7.4756258770786879
  5.7361031120359280  4.3006184989282703  7.4742480889137175
  5.0474241855822424  5.5747845661671027  7.4739026569413047
  5.7406038129266177  6.8431371377549253  7.4743051152861222
 11.2219559988811923  4.3055888578640715  7.4755377357343669
 11.9286719821071809  5.5620479960942291  7.4754752272904561
 11.2269943109044021  6.8241615036306307  7.4755358956528424
  7.7437374880379082  8.1351632960742961  7.4753896026757536
  9.1693225244276881  8.1287529991361271  7.4756932546692578
  9.1763163427427088  0.6151564366445880  7.4757714659810608
  7.0476806421285323  9.3353079505634629  7.4751996824924145
  4.9757061969473586  8.0609258607926080  7.4739181674890398
  5.6391549020042273  9.3143832990830653  7.4744157442780832
 11.9743402128590564  8.0546324718111624  7.4755142560189558
  9.8822739186078792  9.3339813225010442  7.4758021134196753
 11.2956951013395184  9.3047754019324440  7.4757048560263222
 13.4214485300507231  0.6039482565269455  7.4755210610576022
 14.1150304472184089  1.8505859325327259  7.4754604829777778
 13.4002189414477790  3.0922133670028487  7.4754179882033709
 16.2392175828183341  0.6030389945130999  7.4756541179885572
 15.5359021932118875  1.8501271929470411  7.4755234073017034
 16.2380187328310051  3.0952114553036600  7.4756558973032670
 14.0968298208578720  4.3332181151978038  7.4754202479358725
 13.3601996576029194  5.5633973903681744  7.4754340597483626
 14.0913190488516911  6.8049758369226501  7.4754881146377228
 16.2349557360805150  8.0462987741731595  7.4758128474704124
 15.5337710531941777  9.2917037441084780  7.4756221258324214
 13.3981938000848704  8.0511348713534403  7.4754740188415125
 14.1141096178951262  9.2916623683332578  7.4755346122935142
 15.5228365767259380  4.3343089911005830  7.4755985516248131
 15.5187485777746925  6.8065340150217999  7.4757040467195557
 16.2371104683225695  5.5710160200992345  7.4758655588615603
  9.8195456199720379  6.8863467099262525  7.4756979401711945
  7.0989397234780327  4.2298837626549020  7.4750102873452544
  7.1140460744802612  6.9213514156250611  7.4751006041761894
  9.8411221376905367  4.2485635263131654  7.4756723645453382
  8.4860008527725235  5.5730207727737442  7.4758447397292889
