 C  N  B  N Pt  H 
 1.0000000000000000
    17.2331723037347118    0.1939232442189720    0.0039868657739340
     0.1116465227724677    9.8227510386705248    0.0002257265832554
     0.0075913396143808   -0.0000172375406331   14.8677859033498656
 C   N   B   N   Pt  H  
  29   4   1   1   1   9
Cartesian
  6.8916015090693516  0.8365730101970619  7.4345388699574659
  6.1725799231454754  2.0656583333271956  7.4342937165284839
  6.8599732253993153  3.2991076491535538  7.4345324333490632
  4.7286536827637455  2.0832169575686934  7.4338547939720687
  4.0437536794756825  3.3146823323777954  7.4336795299020828
  6.1582450339747714  4.5290558914439245  7.4343611979731472
  6.8700094526651894  5.7517449856653800  7.4346164113681237
  6.2091992442239405  6.9959770778152786  7.4344765919252271
  4.1186442575296596  8.2497516836795821  7.4338049079917781
  4.0432015665303815  0.8622656880974262  7.4336085731294519
  6.9695736121735097  8.1996906735029125  7.4347694493913874
  4.8347680092389069  9.4564444279714905  7.4340266268403052
  6.2823503167649806  9.4392088457504411  7.4345048444975186
  4.7218521135466274  4.5463443993225381  7.4339436755412356
  4.7676173872383902  7.0092751075408524  7.4340099803637170
  4.0624302821295570  5.7882663652214745  7.4337940780212852
  8.3305267093912807  0.8171225189257786  7.4351284478117146
  9.0071555795413278  2.0700081318423287  7.4353337743300614
 11.1899574518824334  0.9497868171027086  7.4363476879568573
 10.4373809464768410  2.1425512591595162  7.4359807521487076
 13.2382877292672774  2.2692038391986373  7.4371005320579346
 11.0893602742337460  3.4333682181431104  7.4362989746261379
 12.5252430887792237  3.4974079290859152  7.4368924240201775
  8.9758849102764344  4.5167709283037540  7.4354242170691851
  8.2799091722550369  5.7490090664558124  7.4351804858776207
 12.6135704271117177  1.0533465219553593  7.4368994775984012
 10.6265793504827641  9.4764653288422931  7.4363309807224001
  8.4209650107466505  8.1523447534220690  7.4353738136533929
 13.3063635857865297  4.6838887401013363  7.4373256590176551
  8.2825277663974788  3.2896317326804616  7.4350361559343288
  9.1763528048818888  9.3961098554085858  7.4357098644016810
  9.0134826292370196  6.9173718730793237  7.4355833875718549
 11.4129229248543513  8.3957540165643554  7.4367323871899789
 10.3485431997366746  4.5708366844249433  7.4360591800807825
 12.8722368065312693  5.9249660514259173  7.4373566041862684
 10.9644958113413011  6.4841566472555785  7.4364563260634338
  3.0344720580566849  8.2835558383413641  7.4334760317874355
  2.9779989472748007  5.8123171518287924  7.4334926365464247
  2.9588893939403147  3.3079483941849754  7.4333580425331753
  2.9586782967385843  0.8617115079213977  7.4332601087365360
 14.3848703519765522  4.5431934563270744  7.4377231991566672
 14.3216864459021540  2.3067175286476536  7.4374618514511193
 13.6119388307694038  6.6173481127794673  7.4378302109150294
 12.3939132270175563  8.6172564705925812  7.4370919090538701
 13.2545363864604724  0.1831921593509133  7.4371686180534944
