C  B  N  Pt
 1.0000000000000000
    16.9439682019478788    0.0000009755160551    0.0039747967038355
     0.0000008000828503    9.9612160394939018    0.0001326642066356
     0.0074625377780516   -0.0002414334535772   14.9094501686656873
 C   B   N   Pt 
  57   1   4   1
Cartesian
  3.5250330853205969  0.6091845960287351  7.4545871525855407
  2.8357097088440510  1.8602934245918592  7.4542739013009891
  3.5513593148854206  3.1044618608091241  7.4545461168352203
  1.4148045994769207  1.8599149288726624  7.4537461730365671
  0.7175537313401075  3.1102527704270160  7.4535506033564163
  2.8664432577795571  4.3556181172243669  7.4543434505729760
  3.6053387089417916  5.5898058191891726  7.4546651636812502
  2.8664536249865233  6.8239620144356889  7.4544476715138579
  0.7175691597707072  8.0692488231516641  7.4536933492889474
  0.7141658122332286  0.6091272465136717  7.4534982470868689
  3.5514101099678284  8.0751384253564904  7.4546398319374223
  1.4148277267407190  9.3195767805589540  7.4538939735053455
  2.8357403487972221  9.3192654741086347  7.4544122060738882
  1.4343430830232466  4.3534764250669244  7.4539217370078630
  1.4343475509819437  6.8260455292881845  7.4540018178762484
  0.7185556347058226  5.5897496027915992  7.4537677295436868
  4.9374179619216214  0.6092414658639405  7.4553231037967072
 12.0139296100759427  0.6091833901696655  7.4570455102799960
  5.6445481750022859  1.8389722364590295  7.4557103323925249
  4.9735075615311475  3.0908463010659379  7.4552210177258305
 11.3068055250630781  1.8389206423223710  7.4570610670613524
 11.9778452142413361  3.0907914303784736  7.4569037484368579
  7.7726115977335501  0.6092897198454719  7.4568592315549322
  7.0579527660051395  1.8141172575353179  7.4564918008063623
  9.8933960618509236  1.8140931835702607  7.4570972618455196
  7.7599027251498676  3.0113594238793135  7.4566828736431372
  9.1914397202215419  3.0113412859910205  7.4569785014232997
  5.7327052185643756  4.3100137521295281  7.4556417502715506
  5.7327657699664734  6.8697181318415161  7.4556871827006121
 11.2186446907815967  4.3099665320721376  7.4569428615801465
 11.8969285230898567  5.5898036971363041  7.4568919130994828
 11.2185758350368356  6.8696670651814236  7.4569896236848923
  7.7599006470257583  8.1683428070790232  7.4567388266586567
  9.1914445203705633  8.1683290848849861  7.4570348160254980
  9.1787345100999449  0.6092738865699433  7.4571284645000349
  7.0580232051268617  9.3656584878919222  7.4565687834418295
  4.9735792309460258  8.0888680611056163  7.4552643007440791
  5.6446155549000858  9.3407982627912407  7.4557790067359928
 11.9777641966272057  8.0888102112224285  7.4569451989441129
  9.8933232497559498  9.3656351988026287  7.4571722565342329
 11.3067309297631944  9.3407442929102587  7.4571264436242712
 13.4263142322543523  0.6091283500729266  7.4569279278597644
 14.1156388700635933  1.8602446825609171  7.4568408817699412
 13.3999932803857362  3.1044082983817258  7.4568081331912497
 16.2371838323047832  0.6091102835783503  7.4570496480849098
 15.5365478259342069  1.8598897051444561  7.4569111167953164
 16.2337978469235047  3.1102365291938199  7.4570710967938520
 14.0849108691275315  4.3555696631924752  7.4567851678592660
 13.3460207098896646  5.5897500761128400  7.4568135927279364
 14.0849041766659138  6.8239135357732703  7.4568766356315157
 16.2337935551446861  8.0692298531384132  7.4572117372752285
 15.5365251658234236  9.3195471596786046  7.4570338674375769
 13.3999402818536577  8.0750844702051392  7.4568902559588350
 14.1156061410974107  9.3192134241713038  7.4569749556719325
 15.5170130367054622  4.3534502492412495  7.4569913154570209
 15.5170139451633773  6.8260239876217046  7.4570666893838835
 16.2327958581773757  5.5897360198278694  7.4572431540158401
  5.0544219538421373  5.5898538968804976  7.4552859427874898
  7.0976745768077620  4.2030118031117985  7.4564545363217700
  7.0977243386551097  6.9766640340178947  7.4565059639433500
  9.8536810803069592  4.2029930860579752  7.4570837389083842
  9.8536188303862620  6.9766415067775469  7.4571271326901956
  8.4756741937738784  5.5897339266161872  7.4569475518406758
