 C  N Fe
   1.00000000000000
    16.9226074160000017    0.0000325730000000    0.0039428880000000
     0.0000193720000000    9.9244210400000004    0.0001121790000000
     0.0074078090000000   -0.0002719780000000   14.9836166609999992
   C    N    Pt
    58     4     1
Direct
  0.2081880934020788  0.0611682221312009  0.4999375281251233
  0.1674649153334968  0.1869187639993370  0.4999266135613354
  0.2098424042284606  0.3119637024926618  0.4999225346323257
  0.0834784536925142  0.1867709198897245  0.4999160130363194
  0.0421613928720816  0.3122141411811867  0.4999119310077091
  0.1690731262672784  0.4372930617653736  0.4999303224299823
  0.2126501918639860  0.5611691626073849  0.4999339453345897
  0.1690740238617678  0.6850415188757566  0.4999318043343308
  0.0421620049321874  0.8101101877070178  0.4999115401879237
  0.0419938600890930  0.0611607058063868  0.4999058459272021
  0.2098441966777926  0.8103726253348498  0.4999241418489646
  0.0834805515652306  0.9355551532194113  0.4999150782727995
  0.1674670138307590  0.9354117964449316  0.4999250135821995
  0.0845034159993787  0.4370112070482719  0.4999318895091776
  0.0845037229098793  0.6853158678355626  0.4999313652179538
  0.0422048281395249  0.5611636762466787  0.4999307450121080
  0.2916261686969435  0.0611729871259001  0.4999656263132479
  0.7083686809023249  0.0611625510623597  0.4999754258245090
  0.3333447710048105  0.1851246653862475  0.4999750768652333
  0.2940025973011799  0.3111724485387413  0.4999371008449884
  0.6666497903627757  0.1851145029337573  0.4999761324701169
  0.7059934768396730  0.3111620281231140  0.4999488181277982
  0.4586311322951175  0.0611805020093854  0.5000418106762012
  0.4167444330227568  0.1835081775550051  0.5000145430250313
  0.5832501045655292  0.1835046078051263  0.4999994256592473
  0.4580151277106452  0.3049650007330271  0.4999987690875898
  0.5419809156032827  0.3049606944468906  0.4999900217192206
  0.3390380617024604  0.4339462136991443  0.4999556983288898
  0.2981523782958675  0.5611749279159000  0.4999428132742452
  0.3390371782701962  0.6884104278435004  0.4999584652137585
  0.6609583084725301  0.4339360887496539  0.4999617519846851
  0.7018425286310617  0.5611645346759815  0.4999520430963642
  0.6609556528479104  0.6884003028632648  0.4999631845446828
  0.4580133597604785  0.8174039610756765  0.4999976026189259
  0.5419791476496698  0.8174026776359042  0.4999888552279259
  0.5413618875329362  0.0611772072913794  0.5000293839212517
  0.4167417971698271  0.9388540026543950  0.5000108907995582
  0.2940020242276020  0.8111764266501638  0.4999386967422836
  0.3333427291989395  0.9372239535320048  0.4999727835807661
  0.7059923140114464  0.8111639909324140  0.4999477446129319
  0.5832504239246603  0.9388504328582172  0.4999944378648991
  0.6666501128434135  0.9372137910351626  0.4999725037722627
  0.7918073716748495  0.0611572383641530  0.4999474626947702
  0.8325308676119931  0.1869085201998502  0.4999244592474525
  0.7901542748083088  0.3119527294401223  0.4999273329745293
  0.9580022341942396  0.0611566913672945  0.4998917159624199
  0.9165173471143717  0.1867651623462052  0.4998950182112623
  0.9578358952070118  0.3122111353825971  0.4998952193101545
  0.8309232678194221  0.4372828281596171  0.4999149990378982
  0.7873453203164971  0.5611592153163230  0.4999282085747865
  0.8309218022948528  0.6850322928566470  0.4999151467653249
  0.9578347347826082  0.8101071818959653  0.4998941615611798
  0.9165147184591120  0.9355493956365706  0.4998920825046795
  0.7901513413139654  0.8103616522064030  0.4999256044567275
  0.8325282398722749  0.9354025602032863  0.4999201909220261
  0.9154941655410198  0.4370074712165959  0.4999020900925544
  0.9154932900172668  0.6853111244288996  0.4999029009112519
  0.9577930570965734  0.5611606706221295  0.4999100516434254
  0.4203399404498640  0.4271173382513922  0.5000037642845712
  0.4203402235612899  0.6952478407571476  0.5000057611503976
  0.5796552281061906  0.4271137922627091  0.4999945434174577
  0.5796525563011485  0.6952412719501098  0.4999972084791011
  0.4999976941371855  0.5611793070713063  0.5000725647273896

  0.00000000E+00  0.00000000E+00  0.00000000E+00
  0.00000000E+00  0.00000000E+00  0.00000000E+00
  0.00000000E+00  0.00000000E+00  0.00000000E+00
  0.00000000E+00  0.00000000E+00  0.00000000E+00
  0.00000000E+00  0.00000000E+00  0.00000000E+00
  0.00000000E+00  0.00000000E+00  0.00000000E+00
  0.00000000E+00  0.00000000E+00  0.00000000E+00
  0.00000000E+00  0.00000000E+00  0.00000000E+00
  0.00000000E+00  0.00000000E+00  0.00000000E+00
  0.00000000E+00  0.00000000E+00  0.00000000E+00
  0.00000000E+00  0.00000000E+00  0.00000000E+00
  0.00000000E+00  0.00000000E+00  0.00000000E+00
  0.00000000E+00  0.00000000E+00  0.00000000E+00
  0.00000000E+00  0.00000000E+00  0.00000000E+00
  0.00000000E+00  0.00000000E+00  0.00000000E+00
  0.00000000E+00  0.00000000E+00  0.00000000E+00
  0.00000000E+00  0.00000000E+00  0.00000000E+00
  0.00000000E+00  0.00000000E+00  0.00000000E+00
  0.00000000E+00  0.00000000E+00  0.00000000E+00
  0.00000000E+00  0.00000000E+00  0.00000000E+00
  0.00000000E+00  0.00000000E+00  0.00000000E+00
  0.00000000E+00  0.00000000E+00  0.00000000E+00
  0.00000000E+00  0.00000000E+00  0.00000000E+00
  0.00000000E+00  0.00000000E+00  0.00000000E+00
  0.00000000E+00  0.00000000E+00  0.00000000E+00
  0.00000000E+00  0.00000000E+00  0.00000000E+00
  0.00000000E+00  0.00000000E+00  0.00000000E+00
  0.00000000E+00  0.00000000E+00  0.00000000E+00
  0.00000000E+00  0.00000000E+00  0.00000000E+00
  0.00000000E+00  0.00000000E+00  0.00000000E+00
  0.00000000E+00  0.00000000E+00  0.00000000E+00
  0.00000000E+00  0.00000000E+00  0.00000000E+00
  0.00000000E+00  0.00000000E+00  0.00000000E+00
  0.00000000E+00  0.00000000E+00  0.00000000E+00
  0.00000000E+00  0.00000000E+00  0.00000000E+00
  0.00000000E+00  0.00000000E+00  0.00000000E+00
  0.00000000E+00  0.00000000E+00  0.00000000E+00
  0.00000000E+00  0.00000000E+00  0.00000000E+00
  0.00000000E+00  0.00000000E+00  0.00000000E+00
  0.00000000E+00  0.00000000E+00  0.00000000E+00
  0.00000000E+00  0.00000000E+00  0.00000000E+00
  0.00000000E+00  0.00000000E+00  0.00000000E+00
  0.00000000E+00  0.00000000E+00  0.00000000E+00
  0.00000000E+00  0.00000000E+00  0.00000000E+00
  0.00000000E+00  0.00000000E+00  0.00000000E+00
  0.00000000E+00  0.00000000E+00  0.00000000E+00
  0.00000000E+00  0.00000000E+00  0.00000000E+00
  0.00000000E+00  0.00000000E+00  0.00000000E+00
  0.00000000E+00  0.00000000E+00  0.00000000E+00
  0.00000000E+00  0.00000000E+00  0.00000000E+00
  0.00000000E+00  0.00000000E+00  0.00000000E+00
  0.00000000E+00  0.00000000E+00  0.00000000E+00
  0.00000000E+00  0.00000000E+00  0.00000000E+00
  0.00000000E+00  0.00000000E+00  0.00000000E+00
  0.00000000E+00  0.00000000E+00  0.00000000E+00
  0.00000000E+00  0.00000000E+00  0.00000000E+00
  0.00000000E+00  0.00000000E+00  0.00000000E+00
  0.00000000E+00  0.00000000E+00  0.00000000E+00
  0.00000000E+00  0.00000000E+00  0.00000000E+00
  0.00000000E+00  0.00000000E+00  0.00000000E+00
  0.00000000E+00  0.00000000E+00  0.00000000E+00
  0.00000000E+00  0.00000000E+00  0.00000000E+00
  0.00000000E+00  0.00000000E+00  0.00000000E+00
